 $CONTRL SCFTYP=RHF RUNTYP=OPTIMIZE COORD=ZMTMPC UNITS=ANGS ICHARG=0
DFTTYP=B3LYP MAXIT=50 NZVAR=51 $END
 $PCM SOLVNT=WATER $END
 $BASIS GBASIS=N31 NGAUSS=6 NDFUNC=1 NPFUNC=0 $END
 $SYSTEM MWORDS=1000 MEMDDI=1000 $END
 $SCF MAXDII=40 $END
 $STATPT NSTEP=400 $END
 $ZMAT
IZMAT(1)=1,  1,  2,
1,  2,  3,     2,  1,  2,  3,
1,  2,  4,     2,  1,  2,  4,     3,  3,  1,  2,  4,
1,  2,  5,     2,  1,  2,  5,     3,  3,  1,  2,  5,
1,  1,  6,     2,  2,  1,  6,     3,  3,  2,  1,  6,
1,  1,  7,     2,  2,  1,  7,     3,  3,  2,  1,  7,
1,  1,  8,     2,  2,  1,  8,     3,  3,  2,  1,  8,
1,  8,  9,     2,  1,  8,  9,     3,  2,  1,  8,  9,
1,  9, 10,     2,  8,  9, 10,     3,  1,  8,  9, 10,
1,  8, 11,     2,  9,  8, 11,     3, 10,  9,  8, 11,
1, 11, 12,     2,  8, 11, 12,     3,  9,  8, 11, 12,
1, 12, 13,     2, 11, 12, 13,     3,  8, 11, 12, 13,
1, 12, 14,     2, 11, 12, 14,     3,  8, 11, 12, 14,
1,  9, 15,     2,  8,  9, 15,     3,  1,  8,  9, 15,
1,  9, 16,     2,  8,  9, 16,     3,  1,  8,  9, 16,
1, 11, 17,     2,  8, 11, 17,     3,  9,  8, 11, 17,
1, 11, 18,     2,  8, 11, 18,     3,  9,  8, 11, 18,
1,  8, 19,     2,  9,  8, 19,     3, 10,  9,  8, 19
{IFZMAT}
{FVALUE} $END
 $DATA
Restrained minimisation of AMINO-1 at {ANGLE} degrees
C1
C2   
C1      1.535674
H3      1.096581 1 110.755200 1
H4      1.097233 1 110.894209 1  119.446482 1      2      1      3
H5      1.095689 1 112.373884 1  239.938733 1      2      1      3
H7      1.096685 1 108.230909 1  303.935657 1      1      2      3
H8      1.100260 1 109.614812 1   58.905482 1      1      2      3
C6      1.544642 1 114.894060 1  181.608931 1      1      2      3
C9      1.543529 1 111.677556 1   {ANGLE:.5f} 1      8      1      2
H13     1.094334 1 109.912420 1  288.942618 1      9      8      1
C17     1.548207 1 111.152428 1  164.709290 1      8      9     10
N20     1.472167 1 117.321263 1  294.920720 1     11      8      9
H21     1.020841 1 109.006465 1  305.197905 1     12     11      8
H22     1.019888 1 109.678147 1   59.968037 1     12     11      8
H11     1.101113 1 108.834985 1   48.940000 1      9      8      1
H12     1.098785 1 109.028246 1  168.940000 1      9      8      1
H18     1.096330 1 109.330781 1  173.088459 1     11      8      9
H19     1.099886 1 108.863969 1   57.379830 1     11      8      9
H10     1.104129 1 107.732687 1   47.410139 1      8      9     10
 $END

