 $CONTRL SCFTYP=RHF RUNTYP=OPTIMIZE COORD=ZMTMPC UNITS=ANGS ICHARG=0
DFTTYP=B3LYP MAXIT=50 NZVAR=45 $END
 $PCM SOLVNT=WATER $END
 $BASIS GBASIS=N31 NGAUSS=6 NDFUNC=1 NPFUNC=0 $END
 $SYSTEM MWORDS=1000 MEMDDI=1000 $END
 $SCF MAXDII=40 $END
 $STATPT NSTEP=400 $END
 $ZMAT
IZMAT(1)=1,  1,  2,
1,  2,  3,     2,  1,  2,  3,
1,  2,  4,     2,  1,  2,  4,     3,  3,  1,  2,  4,
1,  2,  5,     2,  1,  2,  5,     3,  3,  1,  2,  5,
1,  1,  6,     2,  2,  1,  6,     3,  3,  2,  1,  6,
1,  1,  7,     2,  2,  1,  7,     3,  3,  2,  1,  7,
1,  1,  8,     2,  2,  1,  8,     3,  3,  2,  1,  8,
1,  8,  9,     2,  1,  8,  9,     3,  2,  1,  8,  9,
1,  9, 10,     2,  8,  9, 10,     3,  1,  8,  9, 10,
1,  9, 11,     2,  8,  9, 11,     3,  1,  8,  9, 11,
1,  9, 12,     2,  8,  9, 12,     3,  1,  8,  9, 12,
1,  8, 13,     2,  9,  8, 13,     3, 10,  9,  8, 13,
1, 13, 14,     2,  8, 13, 14,     3,  9,  8, 13, 14,
1, 13, 15,     2,  8, 13, 15,     3,  9,  8, 13, 15,
1, 13, 16,     2,  8, 13, 16,     3,  9,  8, 13, 16,
1,  8, 17,     2,  9,  8, 17,     3, 10,  9,  8, 17
{IFZMAT}
{FVALUE} $END
 $DATA
Restrained minimisation of CHLORO1 at {ANGLE} degrees
C1
C2   
C1      1.534450
H3      1.096382 1 110.551750 1
H4      1.097142 1 111.021729 1  119.417677 1      2      1      3
H5      1.096265 1 112.520932 1  240.147725 1      2      1      3
H7      1.096666 1 108.439204 1  302.756337 1      1      2      3
H8      1.099444 1 109.873507 1   58.011029 1      1      2      3
C6      1.549979 1 114.964614 1  181.398411 1      1      2      3
C9      1.542895 1 111.840615 1   {ANGLE:.5f} 1      8      1      2
H13     1.093551 1 109.212358 1  286.367235 1      9      8      1
H11     1.099711 1 108.728038 1   46.370000 1      9      8      1
H12     1.096969 1 109.017662 1  166.370000 1      9      8      1
C17     1.529648 1 111.758277 1  164.468407 1      8      9     10
H18     1.089659 1 112.387321 1  174.004865 1     13      8      9
H19     1.092601 1 111.887679 1   50.712732 1     13      8      9
Cl      1.839570 1 112.943030 1  291.992075 1     13      8      9
H10     1.099984 1 108.724148 1   45.617361 1      8      9     10
 $END

