 $CONTRL SCFTYP=RHF RUNTYP=OPTIMIZE COORD=ZMTMPC UNITS=ANGS ICHARG=0
DFTTYP=B3LYP MAXIT=50 NZVAR=48 $END
 $PCM SOLVNT=WATER $END
 $BASIS GBASIS=N31 NGAUSS=6 NDFUNC=1 NPFUNC=0 $END
 $SYSTEM MWORDS=1000 MEMDDI=1000 $END
 $SCF MAXDII=40 $END
 $STATPT NSTEP=400 $END
 $ZMAT
IZMAT(1)=1,  1,  2,
1,  2,  3,     2,  1,  2,  3,
1,  2,  4,     2,  1,  2,  4,     3,  3,  1,  2,  4,
1,  2,  5,     2,  1,  2,  5,     3,  3,  1,  2,  5,
1,  1,  6,     2,  2,  1,  6,     3,  3,  2,  1,  6,
1,  1,  7,     2,  2,  1,  7,     3,  3,  2,  1,  7,
1,  1,  8,     2,  2,  1,  8,     3,  3,  2,  1,  8,
1,  8,  9,     2,  1,  8,  9,     3,  2,  1,  8,  9,
1,  9, 10,     2,  8,  9, 10,     3,  1,  8,  9, 10,
1,  8, 11,     2,  9,  8, 11,     3, 10,  9,  8, 11,
1, 11, 12,     2,  8, 11, 12,     3,  9,  8, 11, 12,
1, 12, 13,     2, 11, 12, 13,     3,  8, 11, 12, 13,
1,  9, 14,     2,  8,  9, 14,     3,  1,  8,  9, 14,
1,  9, 15,     2,  8,  9, 15,     3,  1,  8,  9, 15,
1, 11, 16,     2,  8, 11, 16,     3,  9,  8, 11, 16,
1, 11, 17,     2,  8, 11, 17,     3,  9,  8, 11, 17,
1,  8, 18,     2,  9,  8, 18,     3, 10,  9,  8, 18
{IFZMAT}
{FVALUE} $END
 $DATA
Restrained minimisation of HYDRO-1 at {ANGLE} degrees
C1
C2   
C1      1.534778
H3      1.096683 1 110.673083 1
H4      1.096996 1 110.956450 1  119.453127 1      2      1      3
H5      1.096095 1 112.372160 1  240.040289 1      2      1      3
H7      1.096962 1 108.292739 1  305.108262 1      1      2      3
H8      1.100321 1 109.736863 1   60.149351 1      1      2      3
C6      1.544895 1 115.064395 1  183.206612 1      1      2      3
C9      1.542891 1 112.246158 1   {ANGLE:.5f} 1      8      1      2
H13     1.093660 1 109.828003 1  287.300615 1      9      8      1
C17     1.538344 1 110.343823 1  162.931997 1      8      9     10
O20     1.431341 1 113.441661 1  299.129641 1     11      8      9
H21     0.971868 1 107.045873 1  296.710877 1     12     11      8
H11     1.100914 1 108.684296 1   47.300000 1      9      8     1
H12     1.096538 1 108.023653 1  167.300000 1      9      8     1
H18     1.100264 1 110.621135 1  174.979330 1     11      8      9
H19     1.096896 1 109.705786 1   56.752560 1     11      8      9
H10     1.103837 1 107.993388 1   46.120746 1      8      9     10
 $END

