 $CONTRL SCFTYP=RHF RUNTYP=OPTIMIZE COORD=ZMTMPC UNITS=ANGS ICHARG=0
DFTTYP=B3LYP MAXIT=50 NZVAR=54 $END
 $PCM SOLVNT=WATER $END
 $BASIS GBASIS=N31 NGAUSS=6 NDFUNC=1 NPFUNC=0 $END
 $SYSTEM MWORDS=1000 MEMDDI=1000 $END
 $SCF MAXDII=40 $END
 $STATPT NSTEP=400 $END
 $ZMAT
IZMAT(1)=1,  1,  2,
1,  2,  3,     2,  1,  2,  3,
1,  2,  4,     2,  1,  2,  4,     3,  3,  1,  2,  4,
1,  2,  5,     2,  1,  2,  5,     3,  3,  1,  2,  5,
1,  1,  6,     2,  2,  1,  6,     3,  3,  2,  1,  6,
1,  1,  7,     2,  2,  1,  7,     3,  3,  2,  1,  7,
1,  1,  8,     2,  2,  1,  8,     3,  3,  2,  1,  8,
1,  8,  9,     2,  1,  8,  9,     3,  2,  1,  8,  9,
1,  9, 10,     2,  8,  9, 10,     3,  1,  8,  9, 10,
1,  8, 11,     2,  9,  8, 11,     3, 10,  9,  8, 11,
1, 11, 12,     2,  8, 11, 12,     3,  9,  8, 11, 12,
1, 12, 13,     2, 11, 12, 13,     3,  8, 11, 12, 13,
1, 12, 14,     2, 11, 12, 14,     3,  8, 11, 12, 14,
1, 12, 15,     2, 11, 12, 15,     3,  8, 11, 12, 15,
1,  9, 16,     2,  8,  9, 16,     3,  1,  8,  9, 16,
1,  9, 17,     2,  8,  9, 17,     3,  1,  8,  9, 17,
1, 11, 18,     2,  8, 11, 18,     3,  9,  8, 11, 18,
1, 11, 19,     2,  8, 11, 19,     3,  9,  8, 11, 19,
1,  8, 20,     2,  9,  8, 20,     3, 10,  9,  8, 20
{IFZMAT}
{FVALUE} $END
 $DATA
Restrained minimisation of METH-1 at {ANGLE} degrees
C1
C2   
C1      1.534069
H3      1.096658 1 111.038169 1
H4      1.097564 1 110.886978 1  119.588905 1      2      1      3
H5      1.096648 1 112.182120 1  239.827892 1      2      1      3
H7      1.097734 1 108.224493 1  302.301604 1      1      2      3
H8      1.101548 1 109.684194 1   57.349355 1      1      2      3
C6      1.546299 1 114.685567 1  179.884727 1      1      2      3
C9      1.545259 1 111.203249 1   {ANGLE:.5f} 1      8      1      2
H13     1.534015 1 114.762337 1  287.266485 1      9      8      1
C17     1.545399 1 111.142118 1  162.931012 1      8      9     10
C20     1.534663 1 114.708109 1  286.917551 1     11      8      9
H21     1.096808 1 110.922950 1  180.636060 1     12     11      8
H22     1.096921 1 110.888922 1  300.225440 1     12     11      8
H23     1.096847 1 112.263917 1   60.574908 1     12     11      8
H11     1.099835 1 108.619112 1   47.270000 1      9      8      1
H12     1.097685 1 109.352611 1  167.270000 1      9      8      1
H18     1.097745 1 109.389892 1  165.260125 1     11      8      9
H19     1.099609 1 108.639641 1   50.019704 1     11      8      9
H10     1.102991 1 107.831235 1   45.013410 1      8      9     10
 $END

