 $CONTRL SCFTYP=RHF RUNTYP=OPTIMIZE COORD=ZMTMPC UNITS=ANGS ICHARG=0
DFTTYP=B3LYP MAXIT=50 NZVAR=57 $END
 $PCM SOLVNT=WATER $END
 $BASIS GBASIS=N31 NGAUSS=6 NDFUNC=1 NPFUNC=0 $END
 $SYSTEM MWORDS=1000 MEMDDI=1000 $END
 $SCF MAXDII=40 $END
 $STATPT NSTEP=400 $END
 $ZMAT
IZMAT(1)=1,  1,  2,
1,  2,  3,     2,  1,  2,  3,
1,  2,  4,     2,  1,  2,  4,     3,  3,  1,  2,  4,
1,  2,  5,     2,  1,  2,  5,     3,  3,  1,  2,  5,
1,  1,  6,     2,  2,  1,  6,     3,  3,  2,  1,  6,
1,  1,  7,     2,  2,  1,  7,     3,  3,  2,  1,  7,
1,  1,  8,     2,  2,  1,  8,     3,  3,  2,  1,  8,
1,  8,  9,     2,  1,  8,  9,     3,  2,  1,  8,  9,
1,  9, 10,     2,  8,  9, 10,     3,  1,  8,  9, 10,
1, 10, 11,     2,  9, 10, 11,     3,  8,  9, 10, 11,
1, 10, 12,     2,  9, 10, 12,     3,  8,  9, 10, 12,
1, 10, 13,     2,  9, 10, 13,     3,  8,  9, 10, 13,
1,  8, 14,     2,  9,  8, 14,     3, 10,  9,  8, 14,
1, 14, 15,     2,  8, 14, 15,     3,  9,  8, 14, 15,
1, 15, 16,     2, 14, 15, 16,     3,  8, 14, 15, 16,
1,  9, 17,     2,  8,  9, 17,     3,  1,  8,  9, 17,
1,  9, 18,     2,  8,  9, 18,     3,  1,  8,  9, 18,
1, 14, 19,     2,  8, 14, 19,     3,  9,  8, 14, 19,
1, 14, 20,     2,  8, 14, 20,     3,  9,  8, 14, 20,
1,  8, 21,     2,  9,  8, 21,     3, 10,  9,  8, 21
{IFZMAT}
{FVALUE} $END
 $DATA
Restrained minimisation of THIO1 at {ANGLE} degrees
C1
C2   
C1      1.534524
H3      1.096344 1 110.729421 1
H4      1.098245 1 110.931912 1  119.447298 1      2      1      3
H5      1.096519 1 112.486941 1  240.036382 1      2      1      3
H7      1.097288 1 108.291568 1  304.138284 1      1      2      3
H8      1.100153 1 109.793575 1   59.270856 1      1      2      3
C6      1.547441 1 114.988185 1  182.470690 1      1      2      3
C9      1.543574 1 111.726149 1   {ANGLE:.5f} 1      8      1      2
C13     1.534165 1 114.458164 1  317.883126 1      9      8      1
H14     1.096981 1 110.744173 1  181.682985 1     10      9      8
H15     1.097340 1 110.958256 1  301.123631 1     10      9      8
H16     1.096172 1 112.315400 1   61.622551 1     10      9      8
C17     1.540497 1 111.391071 1  164.956779 1      8      9     10
S20     1.851500 1 115.864052 1  292.341624 1     14      8      9
H21     1.350291 1  97.187758 1  294.069184 1     15     14      8
H11     1.100063 1 108.715063 1   77.880000 1      9      8      1
H12     1.096371 1 108.597382 1  197.880000 1      9      8      1
H18     1.092006 1 111.439573 1  169.379297 1     14      8      9
H19     1.096483 1 110.290552 1   50.379467 1     14      8      9
H10     1.100730 1 108.139695 1   46.397289 1      8      9     10
 $END

